DIMENSION: 7
EDGE_WEIGHT_TYPE: EXPLICIT
EDGE_WEIGHT_FORMAT: FULL_MATRIX
EDGE_WEIGHT_SECTION:
32767 32767 32767 32767 32767 32767 32767 
32767 32767 91 79 27 55 60 
32767 91 32767 49 90 17 20 
32767 79 49 32767 13 80 32767 
32767 27 90 13 32767 34 19 
32767 55 17 80 34 32767 54 
32767 60 20 32767 19 54 32767 
EOF